p wcnf 146 73 74 
1 79 29 0 
1 -118 -133 0 
1 -52 -134 0 
1 38 -74 0 
1 -7 143 0 
1 126 -69 0 
1 43 -63 0 
1 -129 66 0 
1 112 -54 0 
1 -53 -146 0 
1 -111 -15 0 
1 63 26 0 
1 34 79 0 
1 -128 21 0 
1 -56 91 0 
1 94 78 0 
1 -101 -47 0 
1 80 -121 0 
1 104 73 0 
1 11 104 0 
1 13 125 0 
1 39 -119 0 
1 -32 23 0 
1 -140 24 0 
1 81 -119 0 
1 50 -123 0 
1 -43 102 0 
1 79 -104 0 
1 -39 66 0 
1 -103 -126 0 
1 117 73 0 
1 -102 78 0 
1 -5 1 0 
1 -126 120 0 
1 -69 115 0 
1 45 146 0 
1 49 115 0 
1 98 -38 0 
1 78 -71 0 
1 -129 18 0 
1 73 -144 0 
1 -128 80 0 
1 109 -88 0 
1 -74 -134 0 
1 108 86 0 
1 -138 -129 0 
1 77 -2 0 
1 -58 -107 0 
1 -101 -129 0 
1 -116 135 0 
1 -58 48 0 
1 76 -137 0 
1 128 46 0 
1 -50 87 0 
1 119 -129 0 
1 40 35 0 
1 16 -59 0 
1 35 -145 0 
1 85 7 0 
1 87 -143 0 
1 96 11 0 
1 -81 125 0 
1 28 -43 0 
1 36 -108 0 
1 -36 -97 0 
1 41 101 0 
1 99 3 0 
1 -94 -123 0 
1 113 19 0 
1 -81 3 0 
1 -66 -119 0 
1 -132 63 0 
1 -12 19 0 
